n_res = 3;
rcap = [10, 105, 99];
rtype = [1, 2, 2];
n_tasks = 16;
modes = [ {1, 2, 3}, {4, 5, 6}, {7, 8, 9}, {10, 11, 12}, {13, 14, 15}, {16, 17, 18}, {19, 20, 21}, {22, 23, 24}, {25, 26, 27}, {28, 29, 30}, {31, 32, 33}, {34, 35, 36}, {37, 38, 39}, {40, 41, 42}, {43, 44, 45}, {46, 47, 48} ];
succ = [ {11}, {6, 7, 13}, {4, 5, 10}, {6, 7, 11}, {9, 15}, {9, 12}, {8, 12}, {9, 16}, {14}, {13, 14}, {12, 15}, {14, 16}, {15, 16}, {}, {}, {} ];
n_opt = 48;
dur = [1, 3, 3, 5, 5, 10, 8, 9, 10, 6, 9, 10, 1, 2, 9, 3, 4, 8, 5, 5, 7, 3, 3, 7, 7, 8, 9, 2, 3, 7, 4, 8, 9, 7, 7, 9, 1, 9, 10, 1, 5, 8, 4, 7, 10, 2, 4, 5];
rreq = [|  0,  5,  0,  3,  0,  2,  5,  3,  0,  2,  0,  0,  6,  0,  0,  1,  1,  0,  9, 10,  8, 10,  9,  4,  0,  0,  3,  0,  6,  0,  0,  6,  6,  0,  0,  0,  5,  4,  0,  7,  7,  6,  0,  0,  0,  0,  0,  0
        |  8,  5,  6,  7,  9,  4,  6,  5,  3,  8,  8,  7,  7,  5,  3,  7,  3,  2,  6,  5,  4, 10, 10, 10,  5,  5,  5,  9,  6,  4,  8,  4,  1,  7,  6,  5,  5,  3,  3, 10,  5,  5,  6,  5,  4,  5,  5,  5
        |  3,  3,  3,  6,  9,  6,  8,  5,  4,  8,  7,  7,  5,  5,  5,  8,  4,  2,  9,  9,  9,  8,  9,  6,  7,  5,  3,  5,  5,  4,  5,  3,  2,  3,  4,  1,  3,  2,  2,  8,  6,  4, 10,  9,  7,  9,  4,  2 |];
